p cnf 60 207
1 2 3 4 0
5 6 7 8 0
9 10 11 12 0
13 14 15 16 0
17 18 19 20 0
21 22 23 24 0
25 26 27 28 0
29 30 31 32 0
33 34 35 36 0
37 38 39 40 0
41 42 43 44 0
45 46 47 48 0
49 50 51 52 0
53 54 55 56 0
57 58 59 60 0
-1 -13 0
-2 -14 0
-3 -15 0
-4 -16 0
-1 -25 0
-2 -26 0
-3 -27 0
-4 -28 0
-1 -37 0
-2 -38 0
-3 -39 0
-4 -40 0
-1 -49 0
-2 -50 0
-3 -51 0
-4 -52 0
-5 -9 0
-6 -10 0
-7 -11 0
-8 -12 0
-5 -17 0
-6 -18 0
-7 -19 0
-8 -20 0
-5 -37 0
-6 -38 0
-7 -39 0
-8 -40 0
-5 -41 0
-6 -42 0
-7 -43 0
-8 -44 0
-5 -45 0
-6 -46 0
-7 -47 0
-8 -48 0
-5 -53 0
-6 -54 0
-7 -55 0
-8 -56 0
-9 -13 0
-10 -14 0
-11 -15 0
-12 -16 0
-9 -21 0
-10 -22 0
-11 -23 0
-12 -24 0
-9 -25 0
-10 -26 0
-11 -27 0
-12 -28 0
-9 -29 0
-10 -30 0
-11 -31 0
-12 -32 0
-9 -49 0
-10 -50 0
-11 -51 0
-12 -52 0
-13 -17 0
-14 -18 0
-15 -19 0
-16 -20 0
-13 -21 0
-14 -22 0
-15 -23 0
-16 -24 0
-13 -25 0
-14 -26 0
-15 -27 0
-16 -28 0
-13 -33 0
-14 -34 0
-15 -35 0
-16 -36 0
-13 -57 0
-14 -58 0
-15 -59 0
-16 -60 0
-17 -21 0
-18 -22 0
-19 -23 0
-20 -24 0
-17 -37 0
-18 -38 0
-19 -39 0
-20 -40 0
-17 -41 0
-18 -42 0
-19 -43 0
-20 -44 0
-21 -29 0
-22 -30 0
-23 -31 0
-24 -32 0
-21 -41 0
-22 -42 0
-23 -43 0
-24 -44 0
-21 -45 0
-22 -46 0
-23 -47 0
-24 -48 0
-21 -53 0
-22 -54 0
-23 -55 0
-24 -56 0
-25 -29 0
-26 -30 0
-27 -31 0
-28 -32 0
-25 -33 0
-26 -34 0
-27 -35 0
-28 -36 0
-25 -41 0
-26 -42 0
-27 -43 0
-28 -44 0
-25 -45 0
-26 -46 0
-27 -47 0
-28 -48 0
-29 -33 0
-30 -34 0
-31 -35 0
-32 -36 0
-29 -49 0
-30 -50 0
-31 -51 0
-32 -52 0
-29 -53 0
-30 -54 0
-31 -55 0
-32 -56 0
-29 -57 0
-30 -58 0
-31 -59 0
-32 -60 0
-33 -41 0
-34 -42 0
-35 -43 0
-36 -44 0
-33 -45 0
-34 -46 0
-35 -47 0
-36 -48 0
-33 -49 0
-34 -50 0
-35 -51 0
-36 -52 0
-33 -53 0
-34 -54 0
-35 -55 0
-36 -56 0
-37 -45 0
-38 -46 0
-39 -47 0
-40 -48 0
-37 -49 0
-38 -50 0
-39 -51 0
-40 -52 0
-37 -53 0
-38 -54 0
-39 -55 0
-40 -56 0
-37 -57 0
-38 -58 0
-39 -59 0
-40 -60 0
-41 -49 0
-42 -50 0
-43 -51 0
-44 -52 0
-41 -57 0
-42 -58 0
-43 -59 0
-44 -60 0
-45 -53 0
-46 -54 0
-47 -55 0
-48 -56 0
-49 -57 0
-50 -58 0
-51 -59 0
-52 -60 0
-53 -57 0
-54 -58 0
-55 -59 0
-56 -60 0
